100
128
35
51
12
39
55
25
63
27
37
64
3
21
40
16
14
49
58
19
56
31
53
58
39
39
23
15
12
40
1
64
20
2
12
63
15
50
17
16
9
8
63
42
48
9
44
26
48
21
31
27
22
43
56
41
43
44
29
23
42
60
54
17
3
54
45
26
56
32
36
58
52
44
30
39
48
2
62
37
39
40
5
52
38
39
47
30
29
28
54
54
36
46
51
33
44
63
61
37
64
64